db/data/30793147120429131586468219422210622611.z3.out
sat
-------------------
760.537146323
